p cnf 104 160
1 3 25 0
5 -25 26 0
7 -26 27 0
9 11 -27 0
2 4 28 0
6 -28 29 0
8 -29 30 0
10 12 -30 0
-1 -3 32 0
-1 -3 -32 0
-1 -5 33 0
-1 -5 -33 0
-1 -7 34 0
-1 -7 -34 0
-1 -9 35 0
-1 -9 -35 0
-1 -11 36 0
-1 -11 -36 0
-3 -5 37 0
-3 -5 -37 0
-3 -7 38 0
-3 -7 -38 0
-3 -9 39 0
-3 -9 -39 0
-3 -11 40 0
-3 -11 -40 0
-5 -7 41 0
-5 -7 -41 0
-5 -9 42 0
-5 -9 -42 0
-5 -11 43 0
-5 -11 -43 0
-7 -9 44 0
-7 -9 -44 0
-7 -11 45 0
-7 -11 -45 0
-9 -11 46 0
-9 -11 -46 0
-2 -4 47 0
-2 -4 -47 0
-2 -6 48 0
-2 -6 -48 0
-2 -8 49 0
-2 -8 -49 0
-2 -10 50 0
-2 -10 -50 0
-2 -12 51 0
-2 -12 -51 0
-4 -6 52 0
-4 -6 -52 0
-4 -8 53 0
-4 -8 -53 0
-4 -10 54 0
-4 -10 -54 0
-4 -12 55 0
-4 -12 -55 0
-6 -8 56 0
-6 -8 -56 0
-6 -10 57 0
-6 -10 -57 0
-6 -12 58 0
-6 -12 -58 0
-8 -10 59 0
-8 -10 -59 0
-8 -12 60 0
-8 -12 -60 0
-10 -12 61 0
-10 -12 -61 0
-1 -2 62 0
-1 -2 -62 0
-3 -4 63 0
-3 -4 -63 0
-5 -6 64 0
-5 -6 -64 0
-7 -8 65 0
-7 -8 -65 0
-9 -10 66 0
-9 -10 -66 0
-11 -12 67 0
-11 -12 -67 0
13 16 67 0
19 22 -67 0
14 17 68 0
20 23 -68 0
15 18 69 0
21 24 -69 0
-13 -16 71 0
-13 -16 -71 0
-13 -19 72 0
-13 -19 -72 0
-13 -22 73 0
-13 -22 -73 0
-16 -19 74 0
-16 -19 -74 0
-16 -22 75 0
-16 -22 -75 0
-19 -22 76 0
-19 -22 -76 0
-14 -17 77 0
-14 -17 -77 0
-14 -20 78 0
-14 -20 -78 0
-14 -23 79 0
-14 -23 -79 0
-17 -20 80 0
-17 -20 -80 0
-17 -23 81 0
-17 -23 -81 0
-20 -23 82 0
-20 -23 -82 0
-15 -18 83 0
-15 -18 -83 0
-15 -21 84 0
-15 -21 -84 0
-15 -24 85 0
-15 -24 -85 0
-18 -21 86 0
-18 -21 -86 0
-18 -24 87 0
-18 -24 -87 0
-21 -24 88 0
-21 -24 -88 0
-13 -14 89 0
-13 -14 -89 0
-13 -15 90 0
-13 -15 -90 0
-14 -15 91 0
-14 -15 -91 0
-16 -17 92 0
-16 -17 -92 0
-16 -18 93 0
-16 -18 -93 0
-17 -18 94 0
-17 -18 -94 0
-19 -20 95 0
-19 -20 -95 0
-19 -21 96 0
-19 -21 -96 0
-20 -21 97 0
-20 -21 -97 0
-22 -23 98 0
-22 -23 -98 0
-22 -24 99 0
-22 -24 -99 0
-23 -24 100 0
-23 -24 -100 0
16 17 100 0
18 -9 -100 0
16 17 101 0
18 -10 -101 0
9 10 -16 0
9 10 -17 0
9 10 -18 0
13 14 102 0
15 -7 -102 0
13 14 103 0
15 -8 -103 0
7 8 -13 0
7 8 -14 0
7 8 -15 0
